c n orig vars 116
p cnf 238 407
-166 0
117 -118 0
117 -119 0
-117 118 119 0
-118 120 0
-118 39 0
118 -120 -39 0
119 -186 0
119 -47 0
-119 186 47 0
120 -38 0
120 -37 0
-120 38 37 0
121 -122 0
121 -123 0
-121 122 123 0
122 -82 0
122 -117 0
-122 82 117 0
-123 124 0
-123 34 0
123 -124 -34 0
124 -33 0
124 -40 0
-124 33 40 0
125 -61 0
125 -126 0
-125 61 126 0
126 -36 0
126 -35 0
126 -226 0
-126 36 35 226 0
127 -52 0
127 -135 0
-127 52 135 0
128 -54 0
128 -53 0
128 -127 0
-128 54 53 127 0
129 -56 0
129 -55 0
-129 56 55 0
130 -129 0
130 -128 0
-130 129 128 0
131 -59 0
131 -58 0
131 -130 0
-131 59 58 130 0
132 -73 0
132 -72 0
132 -213 0
-132 73 72 213 0
-133 132 0
-133 131 0
133 -132 -131 0
134 -103 0
134 -102 0
134 -151 0
134 -101 0
-134 103 102 151 101 0
-135 134 0
-135 238 0
-135 237 0
135 -134 -238 -237 0
136 -98 0
136 -139 0
-136 98 139 0
-137 174 0
-137 88 0
137 -174 -88 0
138 -141 0
138 -140 0
-138 141 140 0
139 -97 0
139 -138 0
139 -106 0
-139 97 138 106 0
140 -82 0
140 -188 0
-140 82 188 0
-141 80 0
-141 194 0
141 -80 -194 0
142 -97 0
142 -106 0
142 -145 0
-142 97 106 145 0
143 -98 0
143 -142 0
-143 98 142 0
144 -82 0
144 -187 0
-144 82 187 0
145 -144 0
145 -141 0
-145 144 141 0
146 -79 0
146 -78 0
-146 79 78 0
-147 136 0
-147 99 0
147 -136 -99 0
148 -149 0
148 -146 0
-148 149 146 0
149 -147 0
149 -154 0
149 -155 0
149 -137 0
-149 147 154 155 137 0
150 -67 0
150 -68 0
150 -210 0
-150 67 68 210 0
151 -100 0
151 -148 0
-151 100 148 0
152 -107 0
152 -108 0
-152 107 108 0
153 -116 0
153 -104 0
153 -150 0
-153 116 104 150 0
-154 143 0
-154 105 0
154 -143 -105 0
-155 190 0
-155 83 0
155 -190 -83 0
156 -85 0
156 -157 0
-156 85 157 0
157 -164 0
157 -29 0
157 -30 0
157 -12 0
-157 164 29 30 12 0
158 -61 0
158 -159 0
-158 61 159 0
159 -36 0
159 -35 0
159 -160 0
-159 36 35 160 0
160 -161 0
160 -225 0
-160 161 225 0
161 -85 0
161 -163 0
-161 85 163 0
162 -21 0
162 -22 0
-162 21 22 0
-163 167 0
-163 157 0
163 -167 -157 0
164 -165 0
164 -87 0
164 -84 0
-164 165 87 84 0
165 -195 0
165 -140 0
-165 195 140 0
166 -133 0
166 -57 0
-166 133 57 0
167 -183 0
167 -182 0
-167 183 182 0
168 -85 0
168 -167 0
-168 85 167 0
-169 16 0
-169 178 0
169 -16 -178 0
170 -169 0
170 -168 0
-170 169 168 0
-171 175 0
-171 89 0
171 -175 -89 0
172 -171 0
172 -176 0
-172 171 176 0
173 -97 0
173 -106 0
173 -172 0
-173 97 106 172 0
174 -98 0
174 -173 0
-174 98 173 0
175 -77 0
175 -76 0
-175 77 76 0
176 -85 0
176 -224 0
-176 85 224 0
-177 184 0
-177 20 0
177 -184 -20 0
178 -15 0
178 -18 0
-178 15 18 0
179 -28 0
179 -25 0
179 -220 0
-179 28 25 220 0
180 -14 0
180 -13 0
-180 14 13 0
181 -43 0
181 -44 0
-181 43 44 0
182 -49 0
182 -50 0
182 -119 0
-182 49 50 119 0
-183 181 0
-183 46 0
183 -181 -46 0
184 -19 0
184 -45 0
-184 19 45 0
185 -41 0
185 -42 0
-185 41 42 0
-186 185 0
-186 48 0
186 -185 -48 0
-187 188 0
-187 189 0
187 -188 -189 0
188 -179 0
188 -169 0
-188 179 169 0
189 -195 0
189 -196 0
-189 195 196 0
190 -98 0
190 -191 0
-190 98 191 0
191 -97 0
191 -106 0
191 -192 0
-191 97 106 192 0
192 -193 0
192 -141 0
-192 193 141 0
193 -82 0
193 -189 0
-193 82 189 0
194 -81 0
194 -86 0
-194 81 86 0
-195 180 0
-195 11 0
195 -180 -11 0
196 -170 0
196 -87 0
196 -84 0
-196 170 87 84 0
197 -198 0
197 -91 0
-197 198 91 0
198 -90 0
198 -92 0
-198 90 92 0
-199 88 0
-199 125 0
199 -88 -125 0
-200 158 0
-200 23 0
200 -158 -23 0
-201 208 0
-201 99 0
201 -208 -99 0
-202 219 0
-202 26 0
202 -219 -26 0
203 -206 0
203 -205 0
-203 206 205 0
204 -60 0
204 -203 0
-204 60 203 0
205 -200 0
205 -199 0
205 -202 0
205 -201 0
-205 200 199 202 201 0
206 -94 0
206 -93 0
-206 94 93 0
207 -36 0
207 -35 0
207 -121 0
-207 36 35 121 0
208 -61 0
208 -207 0
-208 61 207 0
209 -96 0
209 -95 0
209 -197 0
-209 96 95 197 0
210 -69 0
210 -204 0
-210 69 204 0
211 -71 0
211 -70 0
211 -212 0
-211 71 70 212 0
212 -217 0
212 -218 0
-212 217 218 0
213 -75 0
213 -214 0
-213 75 214 0
214 -74 0
214 -211 0
-214 74 211 0
215 -66 0
215 -216 0
-215 66 216 0
-216 209 0
-216 150 0
216 -209 -150 0
217 -62 0
217 -63 0
-217 62 63 0
218 -64 0
218 -65 0
218 -215 0
-218 64 65 215 0
219 -61 0
219 -228 0
-219 61 228 0
220 -177 0
220 -17 0
-220 177 17 0
221 -31 0
221 -27 0
-221 31 27 0
-222 32 0
-222 221 0
222 -32 -221 0
223 -28 0
223 -25 0
223 -220 0
-223 28 25 220 0
224 -223 0
224 -222 0
-224 223 222 0
-225 24 0
-225 162 0
225 -24 -162 0
226 -225 0
226 -176 0
-226 225 176 0
227 -225 0
227 -156 0
-227 225 156 0
228 -36 0
228 -35 0
228 -227 0
-228 36 35 227 0
-229 112 0
-229 113 0
229 -112 -113 0
230 -1 0
230 -229 0
230 -111 0
-230 1 229 111 0
231 -7 0
231 -10 0
231 -9 0
-231 7 10 9 0
232 -3 0
232 -6 0
-232 3 6 0
233 -114 0
233 -152 0
-233 114 152 0
234 -233 0
234 -232 0
234 -51 0
234 -4 0
-234 233 232 51 4 0
235 -233 0
235 -231 0
235 -5 0
235 -8 0
-235 233 231 5 8 0
236 -233 0
236 -230 0
236 -2 0
-236 233 230 2 0
-237 236 0
-237 235 0
-237 234 0
237 -236 -235 -234 0
238 -109 0
238 -110 0
238 -153 0
238 -115 0
-238 109 110 153 115 0
